solution status: time limit reached
objective value:                          51302.57227
y#1                                                 1 	(obj:5700)
y#4                                                 1 	(obj:5700)
y#11                                                1 	(obj:5700)
y#26                                                1 	(obj:5700)
y#27                                                1 	(obj:5700)
y#39                                                1 	(obj:5700)
y#41                                                1 	(obj:5700)
y#44                                                1 	(obj:5700)
y#47                                                1 	(obj:5700)
x#1#27                                              1 	(obj:0.01666)
x#2#27                                              1 	(obj:0.00459)
x#3#39                                              1 	(obj:0.05134)
x#4#4                                               1 	(obj:0.01581)
x#5#1                                               1 	(obj:0.03587)
x#6#4                                               1 	(obj:0.00748)
x#7#44                                              1 	(obj:0.0272)
x#8#26                                              1 	(obj:0.02839)
x#9#47                                              1 	(obj:0.01802)
x#10#41                                             1 	(obj:0.01326)
x#11#41                                             1 	(obj:0.05423)
x#12#4                                              1 	(obj:0.03842)
x#13#39                                             1 	(obj:0.04165)
x#14#1                                              1 	(obj:0.03111)
x#15#26                                             1 	(obj:0.02601)
x#16#39                                             1 	(obj:0.03893)
x#17#39                                             1 	(obj:0.0272)
x#18#26                                             1 	(obj:0.01768)
x#19#41                                             1 	(obj:0.01496)
x#20#26                                             1 	(obj:0.01734)
x#21#11                                             1 	(obj:0.02652)
x#22#11                                             1 	(obj:0.03281)
x#23#44                             0.999999999999983 	(obj:0.02703)
x#24#11                                             1 	(obj:0.01394)
x#25#1                                              1 	(obj:0.03723)
x#26#1                                              1 	(obj:0.03417)
x#27#1                                              1 	(obj:0.03213)
x#28#1                                              1 	(obj:0.04981)
x#29#4                                              1 	(obj:0.0289)
x#30#39                                             1 	(obj:0.03417)
x#31#44                                             1 	(obj:0.04284)
x#32#39                                             1 	(obj:0.00544)
x#33#41                                             1 	(obj:0.01972)
x#34#44                                             1 	(obj:0.04386)
x#35#1                                              1 	(obj:0.01513)
x#36#44                                             1 	(obj:0.04233)
x#37#4                                              1 	(obj:0.01003)
x#38#11                                             1 	(obj:0.01751)
x#39#1                                              1 	(obj:0.04284)
x#40#11                                             1 	(obj:0.00493)
x#41#27                                             1 	(obj:0.02329)
x#42#47                                             1 	(obj:0.00578)
x#43#44                                             1 	(obj:0.01751)
x#44#47                                             1 	(obj:0.02159)
x#45#27                                             1 	(obj:0.00238)
x#46#26                                             1 	(obj:0.01343)
x#47#4                                              1 	(obj:0.01683)
x#48#39                                             1 	(obj:0.02771)
x#49#4                                              1 	(obj:0.01904)
x#50#27                                             1 	(obj:0.03774)
x#51#26                                             1 	(obj:0.02006)
x#52#41                                             1 	(obj:0.02278)
x#53#47                                             1 	(obj:0.04267)
x#54#39                                             1 	(obj:0.03145)
x#55#11                                             1 	(obj:0.02941)
x#56#47                                             1 	(obj:0.02176)
x#57#44                                             1 	(obj:0.01428)
x#58#39                                             1 	(obj:0.03604)
x#59#27                                             1 	(obj:0.01054)
x#60#1                                              1 	(obj:0.02822)
x#61#11                                             1 	(obj:0.04284)
x#62#27                                             1 	(obj:0.02363)
x#63#47                                             1 	(obj:0.02805)
x#64#27                                             1 	(obj:0.03689)
x#65#26                                             1 	(obj:0.034)
x#66#26                                             1 	(obj:0.01071)
x#67#27                                             1 	(obj:0.00935)
x#68#4                                              1 	(obj:0.01394)
x#69#47                                             1 	(obj:0.01819)
x#70#44                                             1 	(obj:0.03825)
x#71#1                                              1 	(obj:0.00884)
x#72#27                                             1 	(obj:0.03672)
x#73#44                                             1 	(obj:0.04131)
x#74#11                                             1 	(obj:0.0051)
x#75#11                                             1 	(obj:0.01683)
x#76#44                                             1 	(obj:0.01581)
x#77#41                                             1 	(obj:0.03944)
x#78#4                                              1 	(obj:0.02074)
x#79#47                                             1 	(obj:0.00935)
x#80#47                                             1 	(obj:0.02057)
x#81#41                                             1 	(obj:0.01292)
x#82#11                                             1 	(obj:0.01734)
x#83#4                                              1 	(obj:0.03536)
x#84#44                                             1 	(obj:0.02686)
x#85#39                                             1 	(obj:0.03451)
x#86#41                                             1 	(obj:0.0102)
x#87#4                                              1 	(obj:0.02754)
x#88#39                                             1 	(obj:0.02652)
x#89#41                                             1 	(obj:0.04114)
x#90#26                                             1 	(obj:0.02652)
x#91#27                                             1 	(obj:0.07004)
x#92#11                                             1 	(obj:0.01989)
x#93#39                                             1 	(obj:0.01462)
x#94#41                                             1 	(obj:0.02992)
x#95#41                                             1 	(obj:0.03502)
x#96#26                                             1 	(obj:0.01904)
x#97#47                                             1 	(obj:0.01632)
x#98#47                                             1 	(obj:0.04284)
x#99#4                                              1 	(obj:0.03519)
x#100#1                                             1 	(obj:0.02992)
